p cnf 20 29
1 2 0
-1 -2 0
3 4 0
-3 -4 0
5 6 7 8 0
-5 -6 -7 0
-5 -6 -8 0
-5 -7 -8 0
-6 -7 -8 0
9 10 0
-9 -10 0
11 12 0
-11 -12 0
13 14 0
-13 -14 0
15 0
16 0
17 0
18 0
19 0
20 0
-8 -14 0
-5 -6 0
-9 -10 0
-1 -3 0
-1 -7 0
-3 -7 0
-11 -13 0
-2 -4 0
